FourierSAT_Github_AIJ/benchmarks/MAXSAT_benchmarks/3/bipartite/maxcut-140-630-0.8/maxcut-140-630-0.8-11.cnf
c strEdges: 125  randomEdges: 504 
c degrees:  1  2 
c girth: Inf max: -43.604516  
c Hgirth mixed MAXCUT instance
c generated from an undirected graph
c to solve unweighted MaxCut
p cnf 140 1258
75 41 0
-75 -41 0
75 27 0
-75 -27 0
114 135 0
-114 -135 0
114 9 0
-114 -9 0
43 48 0
-43 -48 0
43 84 0
-43 -84 0
103 39 0
-103 -39 0
103 122 0
-103 -122 0
131 109 0
-131 -109 0
131 101 0
-131 -101 0
108 64 0
-108 -64 0
108 40 0
-108 -40 0
117 72 0
-117 -72 0
53 4 0
-53 -4 0
53 111 0
-53 -111 0
20 122 0
-20 -122 0
20 91 0
-20 -91 0
28 118 0
-28 -118 0
28 35 0
-28 -35 0
92 104 0
-92 -104 0
92 59 0
-92 -59 0
7 111 0
-7 -111 0
7 51 0
-7 -51 0
21 19 0
-21 -19 0
99 85 0
-99 -85 0
99 64 0
-99 -64 0
37 76 0
-37 -76 0
37 61 0
-37 -61 0
65 77 0
-65 -77 0
65 139 0
-65 -139 0
47 97 0
-47 -97 0
47 24 0
-47 -24 0
5 22 0
-5 -22 0
5 19 0
-5 -19 0
12 133 0
-12 -133 0
12 29 0
-12 -29 0
13 139 0
-13 -139 0
13 104 0
-13 -104 0
52 32 0
-52 -32 0
52 39 0
-52 -39 0
130 90 0
-130 -90 0
80 45 0
-80 -45 0
80 86 0
-80 -86 0
94 132 0
-94 -132 0
94 25 0
-94 -25 0
1 100 0
-1 -100 0
1 118 0
-1 -118 0
44 59 0
-44 -59 0
134 14 0
-134 -14 0
134 97 0
-134 -97 0
38 35 0
-38 -35 0
38 113 0
-38 -113 0
56 84 0
-56 -84 0
10 91 0
-10 -91 0
10 105 0
-10 -105 0
66 60 0
-66 -60 0
66 17 0
-66 -17 0
126 115 0
-126 -115 0
126 135 0
-126 -135 0
67 2 0
-67 -2 0
67 116 0
-67 -116 0
128 125 0
-128 -125 0
128 4 0
-128 -4 0
96 23 0
-96 -23 0
96 60 0
-96 -60 0
70 107 0
-70 -107 0
136 15 0
-136 -15 0
136 22 0
-136 -22 0
62 82 0
-62 -82 0
46 50 0
-46 -50 0
46 23 0
-46 -23 0
26 101 0
-26 -101 0
69 9 0
-69 -9 0
69 90 0
-69 -90 0
120 73 0
-120 -73 0
120 109 0
-120 -109 0
49 29 0
-49 -29 0
42 81 0
-42 -81 0
42 11 0
-42 -11 0
8 40 0
-8 -40 0
8 82 0
-8 -82 0
54 31 0
-54 -31 0
54 85 0
-54 -85 0
3 24 0
-3 -24 0
3 112 0
-3 -112 0
127 27 0
-127 -27 0
127 110 0
-127 -110 0
55 51 0
-55 -51 0
55 68 0
-55 -68 0
95 86 0
-95 -86 0
95 77 0
-95 -77 0
129 25 0
-129 -25 0
87 61 0
-87 -61 0
102 16 0
-102 -16 0
102 107 0
-102 -107 0
88 83 0
-88 -83 0
58 137 0
-58 -137 0
36 113 0
-36 -113 0
36 137 0
-36 -137 0
106 78 0
-106 -78 0
106 41 0
-106 -41 0
121 79 0
-121 -79 0
6 112 0
-6 -112 0
6 83 0
-6 -83 0
124 68 0
-124 -68 0
124 30 0
-124 -30 0
140 11 0
-140 -11 0
140 133 0
-140 -133 0
34 110 0
-34 -110 0
34 50 0
-34 -50 0
74 17 0
-74 -17 0
74 115 0
-74 -115 0
119 63 0
-119 -63 0
119 123 0
-119 -123 0
57 89 0
-57 -89 0
138 18 0
-138 -18 0
138 100 0
-138 -100 0
93 123 0
-93 -123 0
93 2 0
-93 -2 0
33 105 0
-33 -105 0
33 14 0
-33 -14 0
98 30 0
-98 -30 0
98 63 0
-98 -63 0
71 116 0
-71 -116 0
71 15 0
-71 -15 0
70 76 0
-70 -76 0
67 107 0
-67 -107 0
129 74 0
-129 -74 0
22 16 0
-22 -16 0
48 111 0
-48 -111 0
7 104 0
-7 -104 0
21 11 0
-21 -11 0
15 110 0
-15 -110 0
52 15 0
-52 -15 0
56 16 0
-56 -16 0
13 124 0
-13 -124 0
3 87 0
-3 -87 0
119 85 0
-119 -85 0
117 34 0
-117 -34 0
70 106 0
-70 -106 0
136 111 0
-136 -111 0
75 116 0
-75 -116 0
41 133 0
-41 -133 0
97 68 0
-97 -68 0
49 42 0
-49 -42 0
80 68 0
-80 -68 0
9 51 0
-9 -51 0
126 15 0
-126 -15 0
32 17 0
-32 -17 0
122 35 0
-122 -35 0
94 74 0
-94 -74 0
3 91 0
-3 -91 0
56 30 0
-56 -30 0
27 78 0
-27 -78 0
119 86 0
-119 -86 0
94 127 0
-94 -127 0
77 113 0
-77 -113 0
10 39 0
-10 -39 0
23 137 0
-23 -137 0
9 30 0
-9 -30 0
36 25 0
-36 -25 0
30 116 0
-30 -116 0
61 11 0
-61 -11 0
84 137 0
-84 -137 0
127 111 0
-127 -111 0
66 49 0
-66 -49 0
62 61 0
-62 -61 0
108 5 0
-108 -5 0
125 11 0
-125 -11 0
40 24 0
-40 -24 0
114 109 0
-114 -109 0
76 22 0
-76 -22 0
69 101 0
-69 -101 0
46 8 0
-46 -8 0
32 110 0
-32 -110 0
121 6 0
-121 -6 0
71 68 0
-71 -68 0
54 19 0
-54 -19 0
34 39 0
-34 -39 0
28 27 0
-28 -27 0
1 110 0
-1 -110 0
53 25 0
-53 -25 0
13 19 0
-13 -19 0
13 86 0
-13 -86 0
1 2 0
-1 -2 0
77 86 0
-77 -86 0
44 40 0
-44 -40 0
108 61 0
-108 -61 0
39 15 0
-39 -15 0
71 30 0
-71 -30 0
57 110 0
-57 -110 0
12 23 0
-12 -23 0
25 123 0
-25 -123 0
3 78 0
-3 -78 0
128 69 0
-128 -69 0
8 27 0
-8 -27 0
13 94 0
-13 -94 0
29 78 0
-29 -78 0
122 31 0
-122 -31 0
32 100 0
-32 -100 0
20 121 0
-20 -121 0
52 3 0
-52 -3 0
103 107 0
-103 -107 0
132 91 0
-132 -91 0
75 130 0
-75 -130 0
122 16 0
-122 -16 0
33 111 0
-33 -111 0
133 125 0
-133 -125 0
34 113 0
-34 -113 0
54 95 0
-54 -95 0
56 57 0
-56 -57 0
111 76 0
-111 -76 0
104 17 0
-104 -17 0
20 23 0
-20 -23 0
12 126 0
-12 -126 0
47 138 0
-47 -138 0
135 105 0
-135 -105 0
33 45 0
-33 -45 0
122 23 0
-122 -23 0
12 128 0
-12 -128 0
73 105 0
-73 -105 0
28 85 0
-28 -85 0
80 77 0
-80 -77 0
95 60 0
-95 -60 0
65 25 0
-65 -25 0
70 25 0
-70 -25 0
48 76 0
-48 -76 0
108 54 0
-108 -54 0
65 66 0
-65 -66 0
13 102 0
-13 -102 0
106 113 0
-106 -113 0
96 138 0
-96 -138 0
107 79 0
-107 -79 0
53 62 0
-53 -62 0
85 123 0
-85 -123 0
136 60 0
-136 -60 0
139 51 0
-139 -51 0
44 87 0
-44 -87 0
138 31 0
-138 -31 0
61 30 0
-61 -30 0
90 15 0
-90 -15 0
26 90 0
-26 -90 0
41 35 0
-41 -35 0
1 34 0
-1 -34 0
53 83 0
-53 -83 0
54 140 0
-54 -140 0
1 101 0
-1 -101 0
135 9 0
-135 -9 0
127 125 0
-127 -125 0
20 110 0
-20 -110 0
47 67 0
-47 -67 0
48 139 0
-48 -139 0
37 26 0
-37 -26 0
43 45 0
-43 -45 0
1 90 0
-1 -90 0
33 107 0
-33 -107 0
127 132 0
-127 -132 0
67 71 0
-67 -71 0
125 29 0
-125 -29 0
86 63 0
-86 -63 0
2 116 0
-2 -116 0
69 59 0
-69 -59 0
65 135 0
-65 -135 0
132 16 0
-132 -16 0
76 61 0
-76 -61 0
41 16 0
-41 -16 0
93 116 0
-93 -116 0
133 27 0
-133 -27 0
23 89 0
-23 -89 0
42 89 0
-42 -89 0
46 112 0
-46 -112 0
37 97 0
-37 -97 0
52 85 0
-52 -85 0
49 41 0
-49 -41 0
53 121 0
-53 -121 0
128 111 0
-128 -111 0
128 112 0
-128 -112 0
21 24 0
-21 -24 0
133 60 0
-133 -60 0
140 119 0
-140 -119 0
46 76 0
-46 -76 0
54 33 0
-54 -33 0
117 123 0
-117 -123 0
106 105 0
-106 -105 0
20 14 0
-20 -14 0
131 120 0
-131 -120 0
130 36 0
-130 -36 0
3 133 0
-3 -133 0
130 23 0
-130 -23 0
12 40 0
-12 -40 0
19 81 0
-19 -81 0
130 24 0
-130 -24 0
84 115 0
-84 -115 0
103 18 0
-103 -18 0
76 125 0
-76 -125 0
58 59 0
-58 -59 0
108 38 0
-108 -38 0
121 17 0
-121 -17 0
102 39 0
-102 -39 0
64 91 0
-64 -91 0
70 139 0
-70 -139 0
88 27 0
-88 -27 0
138 86 0
-138 -86 0
47 8 0
-47 -8 0
72 19 0
-72 -19 0
9 81 0
-9 -81 0
70 85 0
-70 -85 0
48 63 0
-48 -63 0
67 101 0
-67 -101 0
93 98 0
-93 -98 0
108 35 0
-108 -35 0
42 102 0
-42 -102 0
64 100 0
-64 -100 0
50 17 0
-50 -17 0
47 41 0
-47 -41 0
80 33 0
-80 -33 0
130 139 0
-130 -139 0
67 109 0
-67 -109 0
93 63 0
-93 -63 0
66 23 0
-66 -23 0
86 79 0
-86 -79 0
56 33 0
-56 -33 0
64 85 0
-64 -85 0
117 96 0
-117 -96 0
25 89 0
-25 -89 0
58 2 0
-58 -2 0
107 31 0
-107 -31 0
48 60 0
-48 -60 0
32 89 0
-32 -89 0
31 112 0
-31 -112 0
134 81 0
-134 -81 0
53 35 0
-53 -35 0
65 94 0
-65 -94 0
97 101 0
-97 -101 0
41 84 0
-41 -84 0
44 49 0
-44 -49 0
26 2 0
-26 -2 0
99 39 0
-99 -39 0
124 74 0
-124 -74 0
4 101 0
-4 -101 0
120 30 0
-120 -30 0
56 69 0
-56 -69 0
2 16 0
-2 -16 0
108 119 0
-108 -119 0
75 38 0
-75 -38 0
101 78 0
-101 -78 0
75 137 0
-75 -137 0
45 31 0
-45 -31 0
10 79 0
-10 -79 0
76 78 0
-76 -78 0
21 67 0
-21 -67 0
12 9 0
-12 -9 0
88 122 0
-88 -122 0
114 130 0
-114 -130 0
119 97 0
-119 -97 0
134 58 0
-134 -58 0
135 123 0
-135 -123 0
36 122 0
-36 -122 0
96 39 0
-96 -39 0
43 21 0
-43 -21 0
104 123 0
-104 -123 0
69 16 0
-69 -16 0
97 18 0
-97 -18 0
6 40 0
-6 -40 0
136 49 0
-136 -49 0
49 101 0
-49 -101 0
24 83 0
-24 -83 0
103 26 0
-103 -26 0
103 132 0
-103 -132 0
131 107 0
-131 -107 0
65 6 0
-65 -6 0
9 63 0
-9 -63 0
65 29 0
-65 -29 0
135 23 0
-135 -23 0
59 27 0
-59 -27 0
28 135 0
-28 -135 0
92 136 0
-92 -136 0
57 93 0
-57 -93 0
93 101 0
-93 -101 0
36 27 0
-36 -27 0
7 1 0
-7 -1 0
65 112 0
-65 -112 0
45 91 0
-45 -91 0
94 97 0
-94 -97 0
87 11 0
-87 -11 0
127 93 0
-127 -93 0
124 76 0
-124 -76 0
74 107 0
-74 -107 0
50 123 0
-50 -123 0
109 76 0
-109 -76 0
5 122 0
-5 -122 0
44 77 0
-44 -77 0
136 51 0
-136 -51 0
64 61 0
-64 -61 0
92 25 0
-92 -25 0
117 53 0
-117 -53 0
121 9 0
-121 -9 0
132 63 0
-132 -63 0
124 118 0
-124 -118 0
52 62 0
-52 -62 0
94 70 0
-94 -70 0
80 122 0
-80 -122 0
79 17 0
-79 -17 0
7 26 0
-7 -26 0
56 104 0
-56 -104 0
34 104 0
-34 -104 0
54 55 0
-54 -55 0
62 81 0
-62 -81 0
28 120 0
-28 -120 0
65 97 0
-65 -97 0
67 82 0
-67 -82 0
108 58 0
-108 -58 0
5 78 0
-5 -78 0
74 98 0
-74 -98 0
72 82 0
-72 -82 0
75 42 0
-75 -42 0
3 55 0
-3 -55 0
92 130 0
-92 -130 0
14 78 0
-14 -78 0
42 3 0
-42 -3 0
131 40 0
-131 -40 0
69 88 0
-69 -88 0
55 88 0
-55 -88 0
55 60 0
-55 -60 0
8 34 0
-8 -34 0
99 70 0
-99 -70 0
5 41 0
-5 -41 0
76 50 0
-76 -50 0
95 85 0
-95 -85 0
12 41 0
-12 -41 0
35 105 0
-35 -105 0
36 112 0
-36 -112 0
85 125 0
-85 -125 0
57 111 0
-57 -111 0
46 27 0
-46 -27 0
47 88 0
-47 -88 0
20 106 0
-20 -106 0
52 101 0
-52 -101 0
8 129 0
-8 -129 0
20 137 0
-20 -137 0
96 51 0
-96 -51 0
119 24 0
-119 -24 0
55 30 0
-55 -30 0
126 8 0
-126 -8 0
38 69 0
-38 -69 0
70 113 0
-70 -113 0
127 14 0
-127 -14 0
115 82 0
-115 -82 0
128 104 0
-128 -104 0
19 133 0
-19 -133 0
130 2 0
-130 -2 0
57 63 0
-57 -63 0
87 105 0
-87 -105 0
47 130 0
-47 -130 0
52 22 0
-52 -22 0
1 23 0
-1 -23 0
83 11 0
-83 -11 0
70 73 0
-70 -73 0
99 46 0
-99 -46 0
131 2 0
-131 -2 0
77 100 0
-77 -100 0
122 11 0
-122 -11 0
75 97 0
-75 -97 0
55 39 0
-55 -39 0
3 98 0
-3 -98 0
80 140 0
-80 -140 0
67 62 0
-67 -62 0
62 26 0
-62 -26 0
54 50 0
-54 -50 0
54 9 0
-54 -9 0
69 100 0
-69 -100 0
73 123 0
-73 -123 0
5 76 0
-5 -76 0
121 18 0
-121 -18 0
69 91 0
-69 -91 0
117 22 0
-117 -22 0
9 73 0
-9 -73 0
96 102 0
-96 -102 0
24 78 0
-24 -78 0
87 39 0
-87 -39 0
119 23 0
-119 -23 0
20 10 0
-20 -10 0
44 79 0
-44 -79 0
9 27 0
-9 -27 0
120 72 0
-120 -72 0
58 104 0
-58 -104 0
42 63 0
-42 -63 0
49 105 0
-49 -105 0
109 61 0
-109 -61 0
45 9 0
-45 -9 0
131 3 0
-131 -3 0
21 119 0
-21 -119 0
75 101 0
-75 -101 0
8 106 0
-8 -106 0
52 116 0
-52 -116 0
120 41 0
-120 -41 0
135 50 0
-135 -50 0
37 134 0
-37 -134 0
121 24 0
-121 -24 0
9 116 0
-9 -116 0
2 31 0
-2 -31 0
76 110 0
-76 -110 0
66 98 0
-66 -98 0
94 139 0
-94 -139 0
70 88 0
-70 -88 0
21 89 0
-21 -89 0
66 22 0
-66 -22 0
56 8 0
-56 -8 0
47 106 0
-47 -106 0
70 59 0
-70 -59 0
53 102 0
-53 -102 0
53 124 0
-53 -124 0
93 91 0
-93 -91 0
5 91 0
-5 -91 0
53 116 0
-53 -116 0
119 110 0
-119 -110 0
124 9 0
-124 -9 0
103 127 0
-103 -127 0
10 87 0
-10 -87 0
82 123 0
-82 -123 0
43 63 0
-43 -63 0
108 130 0
-108 -130 0
121 132 0
-121 -132 0
96 136 0
-96 -136 0
33 27 0
-33 -27 0
5 33 0
-5 -33 0
139 123 0
-139 -123 0
1 56 0
-1 -56 0
129 86 0
-129 -86 0
109 85 0
-109 -85 0
97 11 0
-97 -11 0
13 97 0
-13 -97 0
1 116 0
-1 -116 0
99 100 0
-99 -100 0
69 83 0
-69 -83 0
43 103 0
-43 -103 0
56 109 0
-56 -109 0
131 90 0
-131 -90 0
131 42 0
-131 -42 0
87 40 0
-87 -40 0
27 89 0
-27 -89 0
7 3 0
-7 -3 0
134 48 0
-134 -48 0
38 15 0
-38 -15 0
108 102 0
-108 -102 0
138 122 0
-138 -122 0
76 89 0
-76 -89 0
103 97 0
-103 -97 0
7 42 0
-7 -42 0
75 64 0
-75 -64 0
56 45 0
-56 -45 0
114 103 0
-114 -103 0
49 135 0
-49 -135 0
47 115 0
-47 -115 0
20 18 0
-20 -18 0
126 78 0
-126 -78 0
111 50 0
-111 -50 0
5 139 0
-5 -139 0
124 17 0
-124 -17 0
37 125 0
-37 -125 0
94 136 0
-94 -136 0
26 45 0
-26 -45 0
1 83 0
-1 -83 0
55 133 0
-55 -133 0
1 86 0
-1 -86 0
139 90 0
-139 -90 0
95 24 0
-95 -24 0
65 95 0
-65 -95 0
10 115 0
-10 -115 0
129 87 0
-129 -87 0
10 40 0
-10 -40 0
66 50 0
-66 -50 0
128 115 0
-128 -115 0
38 54 0
-38 -54 0
126 60 0
-126 -60 0
132 35 0
-132 -35 0
99 118 0
-99 -118 0
82 79 0
-82 -79 0
77 112 0
-77 -112 0
97 15 0
-97 -15 0
56 10 0
-56 -10 0
111 2 0
-111 -2 0
121 89 0
-121 -89 0
129 61 0
-129 -61 0
3 88 0
-3 -88 0
39 89 0
-39 -89 0
86 18 0
-86 -18 0
13 105 0
-13 -105 0
103 140 0
-103 -140 0
37 15 0
-37 -15 0
21 90 0
-21 -90 0
51 18 0
-51 -18 0
15 30 0
-15 -30 0
130 78 0
-130 -78 0
49 2 0
-49 -2 0
14 79 0
-14 -79 0
134 77 0
-134 -77 0
72 105 0
-72 -105 0
60 25 0
-60 -25 0
13 82 0
-13 -82 0
37 109 0
-37 -109 0
69 82 0
-69 -82 0
76 101 0
-76 -101 0
64 45 0
-64 -45 0
32 105 0
-32 -105 0
7 67 0
-7 -67 0
88 119 0
-88 -119 0
42 104 0
-42 -104 0
87 68 0
-87 -68 0
120 60 0
-120 -60 0
127 133 0
-127 -133 0
97 113 0
-97 -113 0
120 90 0
-120 -90 0
33 98 0
-33 -98 0
4 35 0
-4 -35 0
117 39 0
-117 -39 0
38 46 0
-38 -46 0
32 11 0
-32 -11 0
99 67 0
-99 -67 0
98 16 0
-98 -16 0
139 40 0
-139 -40 0
140 132 0
-140 -132 0
29 116 0
-29 -116 0
69 76 0
-69 -76 0
108 126 0
-108 -126 0
72 22 0
-72 -22 0
47 50 0
-47 -50 0
22 113 0
-22 -113 0
60 68 0
-60 -68 0
