FourierSAT_Github_AIJ/res/fs_1core/maxcut-140-630-0.8-11.cnf.txt
o 185
o 179
